HUN,8,6,206
4,24,3,28,5,29,0,28,1,11,2,5
4,11,5,18,1,18,0,7,3,14,2,2
4,7,1,23,3,12,2,24,0,8,5,1
3,19,5,21,1,25,2,12,0,29,4,4
0,16,3,14,4,29,5,29,2,23,1,29
0,15,2,25,5,21,1,30,4,9,3,4
2,21,1,7,5,13,0,4,3,9,4,10
5,14,4,11,3,21,0,23,1,11,2,16
